69.0 63.0 0
3.0 35.0 12
71.0 79.0 5
1.0 47.0 8
11.0 15.0 12
87.0 23.0 18
37.0 33.0 12
87.0 29.0 11
35.0 81.0 19
55.0 71.0 23
41.0 51.0 8
93.0 9.0 25
11.0 49.0 1
75.0 89.0 5
75.0 69.0 17
97.0 95.0 13
15.0 13.0 9
63.0 95.0 13
47.0 41.0 19
45.0 41.0 5
89.0 43.0 26
45.0 59.0 9
95.0 23.0 20
19.0 83.0 21
71.0 69.0 8
27.0 19.0 12
17.0 57.0 13
93.0 15.0 12
59.0 29.0 4
35.0 39.0 19
33.0 51.0 25
61.0 21.0 7
89.0 53.0 3
33.0 85.0 2
37.0 37.0 24
21.0 91.0 13
67.0 95.0 14
61.0 15.0 14
